Traveling Salesman Problem/TSP_generados/Aleatorio1621103256_6.tsp
NAME: Aleatorio1621103256_6.tsp
COMMENT: Randomly generated scenario
TYPE: TSP
DIMENSION: 6
EDGE_WEIGHT_TYPE: ATT
NODE_COORD_SECTION
1 40.62 4.79
2 22.96 17.49
3 21.65 20.01
4 32.94 13.16
5 12.35 18.06
6 2.27 3.0
