Traveling Salesman Problem/TSP_generados/Aleatorio1621103256_6.opt.tour
NAME: Aleatorio1621103256_6.opt.tour
COMMENT: Optimal solution for Aleatorio1621103256_6 (91.0946258081469)
TYPE: TOUR
DIMENSION: 6
TOUR_SECTION
1 4 2 3 5 6
-1
EOF
